8278
41, 8, 9, 10, 43, 33, 28, 26, 27, 47, 14, 13, 52, 11, 51, 12, 25, 4, 6, 5, 15, 38, 40, 39, 37, 24, 48, 46, 44, 34, 35, 36, 49, 22, 31, 18, 3, 17, 21, 42, 7, 2, 30, 29, 16, 50, 20, 23, 1, 32, 45, 19
